minizinc/sudoku_problems2/sudoku_p39.dzn
%
% sudoku_p39.dzn
% See http://www.hakank.org/minizinc/sudoku_gcc.mzn
% 
% This problem is problem 39 from
% Gecode's sudoku.cpp
% http://www.gecode.org/gecode-doc-latest/sudoku_8cpp-source.html
% 
x = array2d(1..n, 1..n, [   
% http://janko.at/Raetsel/Sudoku/306.a.htm
% 39
  _,  _,  _,  _,  _, 13,  5,  _,  _,  7,  _,  1,  6,  9,  _,  _,
  _,  _,  4,  _,  _,  2, 11, 14,  8,  _, 16,  _,  _, 10,  _,  _,
  8, 13, 10,  _,  _,  _,  _,  7,  5,  2,  _,  _, 11, 16, 15,  _,
 16,  _,  9, 14, 10,  _,  8,  6,  _,  _,  3, 15,  2,  _,  _,  _,
 12,  _,  _,  4, 16,  1,  _,  _,  _,  _,  _,  7, 15,  _,  _,  _,
  _, 16,  _, 10,  _,  _,  _,  3,  1,  5,  _,  6,  _,  _, 12,  8,
 14,  _,  5,  _,  _, 15,  7,  _,  4, 16,  _,  _,  1,  _, 10,  2,
  _,  9,  1,  _,  _, 11, 14,  _,  _,  _, 13,  _,  5,  4, 16,  _,
  _,  6,  8, 13,  _,  3,  _,  _,  _, 12,  5,  _,  _, 11,  9,  _,
  4, 14,  _,  5,  _,  _,  9, 11,  _,  3,  1,  _,  _, 15,  _, 16,
  3, 11,  _,  _, 14,  _, 16,  1, 10,  _,  _,  _, 12,  _,  4,  _,
  _,  _,  _,  9,  5,  _,  _,  _,  _,  _, 15,  8,  3,  _,  _,  7,
  _,  _,  _, 12,  9, 16,  _,  _, 15,  1,  _,  5, 13,  8,  _, 11,
  _,  4,  6,  8,  _,  _, 13, 15, 12,  _,  _,  _,  _,  3, 14,  5,
  _,  _,  2,  _,  _, 14,  _, 10,  7, 13, 11,  _,  _, 12,  _,  _,
  _,  _, 14, 15, 11,  _,  3,  _,  _,  8,  6,  _,  _,  _,  _,  _
]);

n = 16;


